<?xml version="1.0" encoding="UTF-8" standalone="no"?>
<instance xmlns:xsi="http://www.w3.org/2001/XMLSchema-instance" xsi:noNamespaceSchemaLocation="src/ch/epfl/lia/frodo/algorithms/XCSPschema.xsd">
<presentation format="XCSP 2.1_FRODO" maxConstraint="2" maximize="true" name="Rnd8-3-1518.xml"/>
<agents nbAgents="8">
<agent name="0"/>
<agent name="1"/>
<agent name="2"/>
<agent name="3"/>
<agent name="4"/>
<agent name="5"/>
<agent name="6"/>
<agent name="7"/>
</agents>
<domains nbDomains="1">
<domain name="D" nbValues="3">1..3</domain>
</domains>
<variables nbVariables="8">
<variable agent="0" domain="D" name="0"/>
<variable agent="1" domain="D" name="1"/>
<variable agent="2" domain="D" name="2"/>
<variable agent="3" domain="D" name="3"/>
<variable agent="4" domain="D" name="4"/>
<variable agent="5" domain="D" name="5"/>
<variable agent="6" domain="D" name="6"/>
<variable agent="7" domain="D" name="7"/>
</variables>
<relations nbRelations="12">
<relation name="r_1" arity="2" nbTuples="9" semantics="soft">15:1 1 |18:1 2 |15:1 3 |17:2 1 |15:2 2 |18:2 3 |15:3 1 |18:3 2 |18:3 3 </relation>
<relation name="r_2" arity="2" nbTuples="9" semantics="soft">18:1 1 |17:1 2 |16:1 3 |18:2 1 |16:2 2 |15:2 3 |18:3 1 |18:3 2 |18:3 3 </relation>
<relation name="r_3" arity="2" nbTuples="9" semantics="soft">17:1 1 |17:1 2 |17:1 3 |15:2 1 |16:2 2 |17:2 3 |18:3 1 |17:3 2 |17:3 3 </relation>
<relation name="r_4" arity="2" nbTuples="9" semantics="soft">16:1 1 |17:1 2 |16:1 3 |16:2 1 |16:2 2 |18:2 3 |17:3 1 |16:3 2 |15:3 3 </relation>
<relation name="r_5" arity="2" nbTuples="9" semantics="soft">17:1 1 |16:1 2 |17:1 3 |17:2 1 |16:2 2 |16:2 3 |17:3 1 |16:3 2 |15:3 3 </relation>
<relation name="r_6" arity="2" nbTuples="9" semantics="soft">18:1 1 |18:1 2 |18:1 3 |16:2 1 |16:2 2 |18:2 3 |16:3 1 |18:3 2 |18:3 3 </relation>
<relation name="r_7" arity="2" nbTuples="9" semantics="soft">15:1 1 |17:1 2 |18:1 3 |15:2 1 |16:2 2 |16:2 3 |16:3 1 |16:3 2 |17:3 3 </relation>
<relation name="r_8" arity="2" nbTuples="9" semantics="soft">16:1 1 |17:1 2 |16:1 3 |16:2 1 |15:2 2 |16:2 3 |17:3 1 |15:3 2 |15:3 3 </relation>
<relation name="r_9" arity="2" nbTuples="9" semantics="soft">16:1 1 |18:1 2 |15:1 3 |17:2 1 |15:2 2 |18:2 3 |17:3 1 |16:3 2 |17:3 3 </relation>
<relation name="r_10" arity="2" nbTuples="9" semantics="soft">16:1 1 |17:1 2 |17:1 3 |16:2 1 |15:2 2 |17:2 3 |18:3 1 |16:3 2 |15:3 3 </relation>
<relation name="r_11" arity="2" nbTuples="9" semantics="soft">18:1 1 |16:1 2 |15:1 3 |17:2 1 |15:2 2 |18:2 3 |18:3 1 |17:3 2 |16:3 3 </relation>
<relation name="r_12" arity="2" nbTuples="9" semantics="soft">16:1 1 |16:1 2 |16:1 3 |18:2 1 |18:2 2 |16:2 3 |16:3 1 |17:3 2 |17:3 3 </relation>
</relations>
<constraints nbConstraints="12">
<constraint name="c_1" arity="2" scope="7 5" reference="r_1"/>
<constraint name="c_2" arity="2" scope="6 7" reference="r_2"/>
<constraint name="c_3" arity="2" scope="6 5" reference="r_3"/>
<constraint name="c_4" arity="2" scope="5 3" reference="r_4"/>
<constraint name="c_5" arity="2" scope="4 3" reference="r_5"/>
<constraint name="c_6" arity="2" scope="2 3" reference="r_6"/>
<constraint name="c_7" arity="2" scope="2 6" reference="r_7"/>
<constraint name="c_8" arity="2" scope="1 2" reference="r_8"/>
<constraint name="c_9" arity="2" scope="1 0" reference="r_9"/>
<constraint name="c_10" arity="2" scope="0 4" reference="r_10"/>
<constraint name="c_11" arity="2" scope="0 7" reference="r_11"/>
<constraint name="c_12" arity="2" scope="0 2" reference="r_12"/>
</constraints>
</instance>